Automatic mesh
0
{% if gamma_centered %}Gamma{% else %}Monkhorst-Pack{% endif %}
{{ kx }} {{ ky }} 1
0 0 0
